p cnf 16 96
4 -14 -16 0
3 -8 16 0
-2 7 16 0
-2 7 -8 0
-6 8 -14 0
-5 -6 -13 0
-11 14 -16 0
7 -14 16 0
2 4 -5 0
4 -9 14 0
4 5 -13 0
-2 -7 11 0
-1 -3 -16 0
-6 -10 -11 0
-4 5 -8 0
2 -8 14 0
2 11 14 0
5 -6 -7 0
9 11 15 0
3 -7 13 0
-2 6 7 0
-2 8 -14 0
4 -12 -14 0
7 -13 15 0
-4 -10 14 0
5 13 -14 0
-2 -13 -16 0
2 -7 -15 0
-3 5 6 0
13 14 16 0
10 12 -14 0
-5 -9 -14 0
9 14 -16 0
4 13 -14 0
4 -12 14 0
-3 -5 -11 0
3 8 14 0
10 -12 14 0
-1 -8 12 0
3 -11 -16 0
-6 -11 12 0
-2 7 9 0
-4 8 -12 0
-4 8 13 0
-2 -7 -10 0
-2 -11 -12 0
-7 -14 15 0
10 13 -14 0
-4 -7 -14 0
-8 11 12 0
5 -8 -16 0
-9 -10 16 0
-2 12 15 0
2 5 -14 0
11 13 -15 0
-5 -13 -15 0
2 6 -15 0
-1 -12 -13 0
-3 -9 14 0
4 -8 14 0
-1 -5 12 0
-8 14 -15 0
7 -11 15 0
1 -13 -14 0
-1 -7 9 0
1 8 -10 0
7 -9 13 0
1 -5 14 0
1 -2 -16 0
2 -9 14 0
-6 7 14 0
7 -9 12 0
-2 -6 -9 0
-2 -7 -15 0
-8 13 14 0
4 -6 -11 0
-4 6 12 0
-2 -3 12 0
2 -11 13 0
2 -12 -16 0
4 -14 -15 0
-4 7 15 0
-7 -9 -14 0
-4 -7 16 0
6 7 -14 0
-6 10 -13 0
-7 -9 -13 0
1 -7 -14 0
7 15 16 0
-4 -9 -14 0
-3 6 12 0
-9 -12 -16 0
-2 6 11 0
9 -13 -15 0
-1 4 -15 0
6 -8 14 0
